Ni N  O 
 1.0000000000000000
     7.4670476093299420    0.0000000000000000    0.0000000000000000
     0.0000000000000000    8.6222038945967867    0.0000000000000000
     0.0000000000000000    0.0000000000000000   24.0645458950949660
 Ni  N   O  
  36   1   1
Selective dynamics
Cartesian
  1.2445079348883237  0.7185169912163989 10.0000000000000000   F   F   F
  3.7335238046649710  0.7185169912163989 10.0000000000000000   F   F   F
  6.2225396744416184  0.7185169912163989 10.0000000000000000   F   F   F
  0.0000000000000000  2.8740679648655956 10.0000000000000000   F   F   F
  2.4890158697766473  2.8740679648655956 10.0000000000000000   F   F   F
  4.9780317395532947  2.8740679648655956 10.0000000000000000   F   F   F
  1.2445079348883237  5.0296189385147922 10.0000000000000000   F   F   F
  3.7335238046649710  5.0296189385147922 10.0000000000000000   F   F   F
  6.2225396744416184  5.0296189385147922 10.0000000000000000   F   F   F
  0.0000000000000000  7.1851699121639889 10.0000000000000000   F   F   F
  2.4890158697766473  7.1851699121639889 10.0000000000000000   F   F   F
  4.9780317395532947  7.1851699121639889 10.0000000000000000   F   F   F
  0.0000000000000000  1.4370339824327978 12.0322729475474830   F   F   F
  2.4890158697766473  1.4370339824327978 12.0322729475474830   F   F   F
  4.9780317395532947  1.4370339824327978 12.0322729475474830   F   F   F
  1.2445079348883237  3.5925849560819940 12.0322729475474830   F   F   F
  3.7335238046649710  3.5925849560819940 12.0322729475474830   F   F   F
  6.2225396744416184  3.5925849560819940 12.0322729475474830   F   F   F
  0.0000000000000000  5.7481359297311911 12.0322729475474830   F   F   F
  2.4890158697766473  5.7481359297311911 12.0322729475474830   F   F   F
  4.9780317395532947  5.7481359297311911 12.0322729475474830   F   F   F
  1.2445079348883237  7.9036869033803878 12.0322729475474830   F   F   F
  3.7335238046649710  7.9036869033803878 12.0322729475474830   F   F   F
  6.2225396744416184  7.9036869033803878 12.0322729475474830   F   F   F
  0.0000000000000000  0.0000000000000000 14.0645458950949660   T   T   T
  2.4890158697766473  0.0000000000000000 14.0645458950949660   T   T   T
  4.9780317395532947  0.0000000000000000 14.0645458950949660   T   T   T
  1.2445079348883237  2.1555509736491967 14.0645458950949660   T   T   T
  3.7335238046649710  2.1555509736491967 14.0645458950949660   T   T   T
  6.2225396744416184  2.1555509736491967 14.0645458950949660   T   T   T
  0.0000000000000000  4.3111019472983934 14.0645458950949660   T   T   T
  2.4890158697766473  4.3111019472983934 14.0645458950949660   T   T   T
  4.9780317395532947  4.3111019472983934 14.0645458950949660   T   T   T
  1.2445079348883237  6.4666529209475900 14.0645458950949660   T   T   T
  3.7335238046649710  6.4666529209475900 14.0645458950949660   T   T   T
  6.2225396744416184  6.4666529209475900 14.0645458950949660   T   T   T
  2.4890158697766473  2.8740679648655956 15.2286484999999985   T   T   T
  2.4890158697766473  2.8740679648655956 16.3713515000000029   T   T   T
